proyfinal/src/viki/013/experimentInOfficeAgust.take6.output/a634ab1d-9fa6-4c24-a85b-23d8c5ed302c.als.out
Reading from standard input... Use '--help' for help.
============================[ Problem Statistics ]=============================
|                                                                             |
|  Number of variables:         87638                                         |
|  Number of clauses:          161767                                         |
|  Parse time:                   0.03 s                                       |
|                                                                             |
============================[ Search Statistics ]==============================
| Conflicts |          ORIGINAL         |          LEARNT          | Progress |
|           |    Vars  Clauses Literals |    Limit  Clauses Lit/Cl |          |
===============================================================================
|       100 |   63227   108255   270408 |    39693      100     37 | 27.854 % |
|       250 |   63227   108255   270408 |    43662      250     94 | 27.854 % |
|       475 |   63227   108255   270408 |    48029      475     88 | 27.854 % |
|       812 |   54466   108211   270318 |    52832      809     76 | 37.851 % |
|      1318 |   54437    81984   205785 |    58115     1310     78 | 37.884 % |
|      2077 |   54380    81773   205280 |    63926     2067     71 | 37.949 % |
|      3216 |   54325    81534   204699 |    70319     3198     64 | 38.012 % |
|      4924 |   53826    79656   200142 |    77351     3849     56 | 38.581 % |
|      7486 |   53826    79656   200142 |    85086     6411     65 | 38.581 % |
|     11330 |   53694    79106   198779 |    93595    10170     62 | 38.732 % |
|     17096 |   53236    77286   194364 |   102954    15087     62 | 39.255 % |
===============================================================================
restarts              : 65
conflicts             : 19411          (8104 /sec)
decisions             : 69137          (0.00 % random) (28866 /sec)
propagations          : 27128627       (11326550 /sec)
conflict literals     : 1199035        (43.55 % deleted)
Memory used           : 32.78 MB
CPU time              : 2.39514 s

INDETERMINATE
